1851460
0,11,41,60,2,20,23,31,55,39,4,59,28,24,29,40,63,66,37,6,33,54,45,42,10,65,25,5,22,48,18,46,3,19,64,47,1,26,16,8,57,14,7,67,34,50,38,61,52,36,35,58,15,62,27,49,30,21,51,13,56,32,17,9,43,44,12,53,0